12 24 9 10
20 11 19 12 5 11 17 14 16 1 16 7 10 14 17 15 9 14 2 14 7 12 7 8 
2.32 7.88 2.41 1.62 2.41 0.3 3.52 7.82 6.61 2.87 7.21 3.85 7.76 1.17 5.25 3.93 3.09 3.02 0.81 7.95 5.18 6.22 7.95 6.65 
5.47 3.19 3.74 3.89 1.95 2.21 3.36 2.99 1.77 2.5 6.11 7.08 7.64 7.74 6.67 3.25 4.2 1.17 7.93 5.99 0.89 2.4 5.87 6.13 
4.56 4.52 1.46 7.78 5.12 2.82 1.15 4.75 6.13 0.68 5.58 3.74 6.78 4.84 7.41 3.23 3.22 3.11 3.55 4.63 4.78 0.93 5.5 1.03 
0.32 2.03 7.24 0.62 3.29 5.68 7.91 3.73 7.44 5.52 1.86 3.94 4.23 0.11 6.5 7.68 4.94 6.29 0.29 2.6 4.81 4.31 5.06 1.08 
2.14 7.64 4.12 4.69 0.86 7.35 5.66 7.97 1.58 3.09 4.13 0.51 5.74 7.69 1.51 7.74 3.19 0.09 2.25 4.95 5.44 1.7 3.42 7.12 
4.15 1 2.17 1.49 4.91 3.23 6.07 1.18 6.61 5.03 3.68 0.5 7.08 5.01 0.2 6.73 7.66 1.6 1.47 2.41 7.07 2.39 5.49 7.22 
2.38 0.51 2.73 1.36 5.45 2.78 4.93 4.9 3.3 3.4 0.94 6.81 0.41 7.25 4.32 2.16 6.35 2.42 2.7 4.45 6.5 3.8 6.48 5.11 
6.35 7.15 2.5 4.18 0.82 0.61 3.04 2.91 6.4 0.8 4.43 7.46 6.1 1.99 4.03 1.97 4.94 5.3 2.26 3.52 2.57 2.83 4.33 7.45 
2.3 6.07 4.42 6.7 7.81 6.77 2.05 2.15 1.54 7.74 1.44 6.83 3.64 4.14 4.66 2.16 6.6 7.01 2.78 5.22 3.23 0.8 0.85 1.32 
4 4 4 4 4 4 4 4 4 4 4 4 4 4 4 4 4 4 4 4 4 4 4 4 
2.9 1.48 4.65 3.06 0.95 3.94 6.76 1.38 2.6 0.8 7.67 1.57 0.3 3.67 6.87 2.32 5.56 5.85 0.08 6.49 3.74 4.09 7.97 3.84 
7.23 7.39 1.44 6.78 0.99 1.27 3.38 7.22 7.23 6.54 2.91 5.37 0.48 1.07 6.56 1.07 5.33 3.97 4.63 4.03 2.7 6.77 0.57 5.17 
1 1 1 1 1 1 1 1 1 1 1 1 1 1 1 1 1 1 1 1 1 1 1 1 
1 1 1 1 1 1 1 1 1 1 1 1 1 1 1 1 1 1 1 1 1 1 1 1 
1 1 1 1 1 1 1 1 1 1 1 1 1 1 1 1 1 1 1 1 1 1 1 1 
1 1 1 1 1 1 1 1 1 1 1 1 1 1 1 1 1 1 1 1 1 1 1 1 
1 1 1 1 1 1 1 1 1 1 1 1 1 1 1 1 1 1 1 1 1 1 1 1 
1 1 1 1 1 1 1 1 1 1 1 1 1 1 1 1 1 1 1 1 1 1 1 1 
1 1 1 1 1 1 1 1 1 1 1 1 1 1 1 1 1 1 1 1 1 1 1 1 
1 1 1 1 1 1 1 1 1 1 1 1 1 1 1 1 1 1 1 1 1 1 1 1 
1 1 1 1 1 1 1 1 1 1 1 1 1 1 1 1 1 1 1 1 1 1 1 1 
1 1 1 1 1 1 1 1 1 1 1 1 1 1 1 1 1 1 1 1 1 1 1 1 
1 1 1 1 1 1 1 1 1 1 1 1 1 1 1 1 1 1 1 1 1 1 1 1 
1 1 1 1 1 1 1 1 1 1 1 1 1 1 1 1 1 1 1 1 1 1 1 1 
0.01 0.01 0.01 0.01 0.01 0.01 0.01 0.01 0.01 0.01 0.01 0.01 0.01 0.01 0.01 0.01 0.01 0.01 0.01 0.01 0.01 0.01 0.01 0.01 
0.02 0.02 0.02 0.02 0.02 0.02 0.02 0.02 0.02 0.02 0.02 0.02 0.02 0.02 0.02 0.02 0.02 0.02 0.02 0.02 0.02 0.02 0.02 0.02 
0.03 0.03 0.03 0.03 0.03 0.03 0.03 0.03 0.03 0.03 0.03 0.03 0.03 0.03 0.03 0.03 0.03 0.03 0.03 0.03 0.03 0.03 0.03 0.03 
0.04 0.04 0.04 0.04 0.04 0.04 0.04 0.04 0.04 0.04 0.04 0.04 0.04 0.04 0.04 0.04 0.04 0.04 0.04 0.04 0.04 0.04 0.04 0.04 
0.05 0.05 0.05 0.05 0.05 0.05 0.05 0.05 0.05 0.05 0.05 0.05 0.05 0.05 0.05 0.05 0.05 0.05 0.05 0.05 0.05 0.05 0.05 0.05 
0.06 0.06 0.06 0.06 0.06 0.06 0.06 0.06 0.06 0.06 0.06 0.06 0.06 0.06 0.06 0.06 0.06 0.06 0.06 0.06 0.06 0.06 0.06 0.06 
0.07 0.07 0.07 0.07 0.07 0.07 0.07 0.07 0.07 0.07 0.07 0.07 0.07 0.07 0.07 0.07 0.07 0.07 0.07 0.07 0.07 0.07 0.07 0.07 
0.08 0.08 0.08 0.08 0.08 0.08 0.08 0.08 0.08 0.08 0.08 0.08 0.08 0.08 0.08 0.08 0.08 0.08 0.08 0.08 0.08 0.08 0.08 0.08 
0.09 0.09 0.09 0.09 0.09 0.09 0.09 0.09 0.09 0.09 0.09 0.09 0.09 0.09 0.09 0.09 0.09 0.09 0.09 0.09 0.09 0.09 0.09 0.09 
0.1 0.1 0.1 0.1 0.1 0.1 0.1 0.1 0.1 0.1 0.1 0.1 0.1 0.1 0.1 0.1 0.1 0.1 0.1 0.1 0.1 0.1 0.1 0.1 
0.5 0.5 0.5 0.5 0.5 0.5 0.5 0.5 0.5 0.5 0.5 0.5 0.5 0.5 0.5 0.5 0.5 0.5 0.5 0.5 0.5 0.5 0.5 0.5 
1 1 1 1 1 1 1 1 1 1 1 1 1 1 1 1 1 1 1 1 1 1 1 1 
